% demand
num_movements = 51;
loading_factor = [1800, 1450, 1650, 1300, 1450, 900, 1950, 1650, 850, 950, 800, 1850, 1050, 1550, 1650, 1700, 950, 1700, 1750, 1500, 1400, 800, 1350, 1600, 1050, 1800, 1500, 1800, 850, 1450, 1100, 1150, 1200, 1150, 1050, 1300, 1500, 800, 1550, 1650, 800, 1450, 1200, 1900, 1900, 850, 1550, 1700, 1050, 900, 1700];
pickup_time = [0, 0, 0, 0, 0, 0, 0, 1, 1, 3, 3, 3, 3, 3, 3, 3, 4, 4, 6, 6, 6, 6, 6, 6, 6, 7, 7, 7, 7, 7, 8, 8, 8, 8, 9, 9, 9, 9, 9, 9, 9, 10, 10, 10, 10, 11, 11, 12, 12, 12, 12];
delivery_time = [3, 1, 1, 3, 2, 3, 2, 3, 3, 4, 4, 5, 4, 7, 5, 4, 5, 5, 9, 8, 7, 7, 7, 7, 7, 8, 9, 8, 8, 8, 9, 9, 9, 9, 10, 10, 10, 10, 10, 10, 10, 11, 11, 11, 11, 13, 13, 13, 13, 13, 13];

% transporter definition
total_capacity = 11000;
num_decks = 4;
capacity = [3000, 3000, 1000, 4000];

% ways out of decks
num_ways_out = 2;
paths_out = array3d(decks, ways_out, decks, [
% ways out of deck d1
2, 4, 0, 0, 3, 4, 0, 0, 

% ways out of deck d2
4, 0, 0, 0, 0, 0, 0, 0,	

% ways out of deck d3
4, 0, 0, 0, 0, 0, 0, 0,	

% ways out of deck d4
0, 0, 0, 0,	0, 0, 0, 0,	

]);

